Maximize

x_0_0 + x_0_1 + x_0_2 + x_0_3 + x_1_0 + x_1_1 + x_1_2 + x_1_3 + x_2_0 + x_2_1 + x_2_2 + x_2_3 + x_3_0 + x_3_1 + x_3_2 + x_3_3 + x_4_0 + x_4_1 + x_4_2 + x_4_3 + x_5_0 + x_5_1 + x_5_2 + x_5_3 + x_6_0 + x_6_1 + x_6_2 + x_6_3 + x_7_0 + x_7_1 + x_7_2 + x_7_3 + x_8_0 + x_8_1 + x_8_2 + x_8_3


Subject To

a0: x_0_0 + x_0_1 + x_0_2 + x_0_3 <= 1
a1: x_1_0 + x_1_1 + x_1_2 + x_1_3 <= 1
a2: x_2_0 + x_2_1 + x_2_2 + x_2_3 <= 1
a3: x_3_0 + x_3_1 + x_3_2 + x_3_3 <= 1
a4: x_4_0 + x_4_1 + x_4_2 + x_4_3 <= 1
a5: x_5_0 + x_5_1 + x_5_2 + x_5_3 <= 1
a6: x_6_0 + x_6_1 + x_6_2 + x_6_3 <= 1
a7: x_7_0 + x_7_1 + x_7_2 + x_7_3 <= 1
a8: x_8_0 + x_8_1 + x_8_2 + x_8_3 <= 1
b0: 6 x_0_0 + 4 x_1_0 + 3 x_2_0 + 1 x_3_0 + 6 x_4_0 + 5 x_5_0 + 2 x_6_0 + 5 x_7_0 + 2 x_8_0 <= 10
b1: 6 x_0_1 + 4 x_1_1 + 3 x_2_1 + 1 x_3_1 + 6 x_4_1 + 5 x_5_1 + 2 x_6_1 + 5 x_7_1 + 2 x_8_1 <= 5
b2: 6 x_0_2 + 4 x_1_2 + 3 x_2_2 + 1 x_3_2 + 6 x_4_2 + 5 x_5_2 + 2 x_6_2 + 5 x_7_2 + 2 x_8_2 <= 2
b3: 6 x_0_3 + 4 x_1_3 + 3 x_2_3 + 1 x_3_3 + 6 x_4_3 + 5 x_5_3 + 2 x_6_3 + 5 x_7_3 + 2 x_8_3 <= 8
c0: x_0_0 + x_5_0 + x_7_0 + x_8_0 < 1
c1: x_0_1 + x_5_1 + x_7_1 + x_8_1 < 1
c2: x_0_2 + x_5_2 + x_7_2 + x_8_2 < 1
c3: x_0_3 + x_5_3 + x_7_3 + x_8_3 < 1
c4: x_1_0 + x_3_0 < 1
c5: x_1_1 + x_3_1 < 1
c6: x_1_2 + x_3_2 < 1
c7: x_1_3 + x_3_3 < 1
c8: x_2_0 + x_4_0 < 1
c9: x_2_1 + x_4_1 < 1
c10: x_2_2 + x_4_2 < 1
c11: x_2_3 + x_4_3 < 1
c12: x_1_0 + x_3_0 + x_8_0 < 1
c13: x_1_1 + x_3_1 + x_8_1 < 1
c14: x_1_2 + x_3_2 + x_8_2 < 1
c15: x_1_3 + x_3_3 + x_8_3 < 1
c16: x_2_0 + x_4_0 + x_5_0 + x_7_0 < 1
c17: x_2_1 + x_4_1 + x_5_1 + x_7_1 < 1
c18: x_2_2 + x_4_2 + x_5_2 + x_7_2 < 1
c19: x_2_3 + x_4_3 + x_5_3 + x_7_3 < 1
c20: x_0_0 + x_4_0 + x_5_0 + x_7_0 < 1
c21: x_0_1 + x_4_1 + x_5_1 + x_7_1 < 1
c22: x_0_2 + x_4_2 + x_5_2 + x_7_2 < 1
c23: x_0_3 + x_4_3 + x_5_3 + x_7_3 < 1
c24: x_6_0 < 1
c25: x_6_1 < 1
c26: x_6_2 < 1
c27: x_6_3 < 1
c28: x_0_0 + x_4_0 + x_5_0 + x_7_0 < 1
c29: x_0_1 + x_4_1 + x_5_1 + x_7_1 < 1
c30: x_0_2 + x_4_2 + x_5_2 + x_7_2 < 1
c31: x_0_3 + x_4_3 + x_5_3 + x_7_3 < 1
c32: x_0_0 + x_3_0 + x_8_0 < 1
c33: x_0_1 + x_3_1 + x_8_1 < 1
c34: x_0_2 + x_3_2 + x_8_2 < 1
c35: x_0_3 + x_3_3 + x_8_3 < 1



Bounds


x_0_0 <= 1
x_0_1 <= 1
x_0_2 <= 1
x_0_3 <= 1
x_1_0 <= 1
x_1_1 <= 1
x_1_2 <= 1
x_1_3 <= 1
x_2_0 <= 1
x_2_1 <= 1
x_2_2 <= 1
x_2_3 <= 1
x_3_0 <= 1
x_3_1 <= 1
x_3_2 <= 1
x_3_3 <= 1
x_4_0 <= 1
x_4_1 <= 1
x_4_2 <= 1
x_4_3 <= 1
x_5_0 <= 1
x_5_1 <= 1
x_5_2 <= 1
x_5_3 <= 1
x_6_0 <= 1
x_6_1 <= 1
x_6_2 <= 1
x_6_3 <= 1
x_7_0 <= 1
x_7_1 <= 1
x_7_2 <= 1
x_7_3 <= 1
x_8_0 <= 1
x_8_1 <= 1
x_8_2 <= 1
x_8_3 <= 1



Binary

x_0_0 x_0_1 x_0_2 x_0_3 x_1_0 x_1_1 x_1_2 x_1_3 x_2_0 x_2_1 x_2_2 x_2_3 x_3_0 x_3_1 x_3_2 x_3_3 x_4_0 x_4_1 x_4_2 x_4_3 x_5_0 x_5_1 x_5_2 x_5_3 x_6_0 x_6_1 x_6_2 x_6_3 x_7_0 x_7_1 x_7_2 x_7_3 x_8_0 x_8_1 x_8_2 x_8_3 x_0_0 x_0_1 x_0_2 x_0_3 x_1_0 x_1_1 x_1_2 x_1_3 x_2_0 x_2_1 x_2_2 x_2_3 x_3_0 x_3_1 x_3_2 x_3_3 x_4_0 x_4_1 x_4_2 x_4_3 x_5_0 x_5_1 x_5_2 x_5_3 x_6_0 x_6_1 x_6_2 x_6_3 x_7_0 x_7_1 x_7_2 x_7_3 x_8_0 x_8_1 x_8_2 x_8_3

 


End
